\ Model Network Flow Problem with Time-Dependent Capacities
\ LP format - for model browsing. Use MPS format to capture full model detail.
Minimize
  11.65843965242688 flow[0,0] + 11.65843965242688 flow[0,1]
   + 11.65843965242688 flow[0,2] + 11.65843965242688 flow[0,3]
   + 11.65843965242688 flow[0,4] + 14.18844753427964 flow[1,0]
   + 14.18844753427964 flow[1,1] + 14.18844753427964 flow[1,2]
   + 14.18844753427964 flow[1,3] + 14.18844753427964 flow[1,4]
   + 20.77370842081366 flow[2,0] + 20.77370842081366 flow[2,1]
   + 20.77370842081366 flow[2,2] + 20.77370842081366 flow[2,3]
   + 20.77370842081366 flow[2,4] + 44.31397055242994 flow[3,0]
   + 44.31397055242994 flow[3,1] + 44.31397055242994 flow[3,2]
   + 44.31397055242994 flow[3,3] + 44.31397055242994 flow[3,4]
   + 20.91808147335973 flow[4,0] + 20.91808147335973 flow[4,1]
   + 20.91808147335973 flow[4,2] + 20.91808147335973 flow[4,3]
   + 20.91808147335973 flow[4,4] + 81.56993633750389 flow[5,0]
   + 81.56993633750389 flow[5,1] + 81.56993633750389 flow[5,2]
   + 81.56993633750389 flow[5,3] + 81.56993633750389 flow[5,4]
   + 58.62868669927166 flow[6,0] + 58.62868669927166 flow[6,1]
   + 58.62868669927166 flow[6,2] + 58.62868669927166 flow[6,3]
   + 58.62868669927166 flow[6,4] + 4.2906799926674 flow[7,0]
   + 4.2906799926674 flow[7,1] + 4.2906799926674 flow[7,2]
   + 4.2906799926674 flow[7,3] + 4.2906799926674 flow[7,4]
   + 36.5965392043008 flow[8,0] + 36.5965392043008 flow[8,1]
   + 36.5965392043008 flow[8,2] + 36.5965392043008 flow[8,3]
   + 36.5965392043008 flow[8,4] + 55.11150341916549 flow[9,0]
   + 55.11150341916549 flow[9,1] + 55.11150341916549 flow[9,2]
   + 55.11150341916549 flow[9,3] + 55.11150341916549 flow[9,4]
   + 19.34513126726269 flow[10,0] + 19.34513126726269 flow[10,1]
   + 19.34513126726269 flow[10,2] + 19.34513126726269 flow[10,3]
   + 19.34513126726269 flow[10,4] + 19.82355317777311 flow[11,0]
   + 19.82355317777311 flow[11,1] + 19.82355317777311 flow[11,2]
   + 19.82355317777311 flow[11,3] + 19.82355317777311 flow[11,4]
   + 82.92999818846251 flow[12,0] + 82.92999818846251 flow[12,1]
   + 82.92999818846251 flow[12,2] + 82.92999818846251 flow[12,3]
   + 82.92999818846251 flow[12,4] + 36.29203406892275 flow[13,0]
   + 36.29203406892275 flow[13,1] + 36.29203406892275 flow[13,2]
   + 36.29203406892275 flow[13,3] + 36.29203406892275 flow[13,4]
   + 80.35799306369061 flow[14,0] + 80.35799306369061 flow[14,1]
   + 80.35799306369061 flow[14,2] + 80.35799306369061 flow[14,3]
   + 80.35799306369061 flow[14,4]
Subject To
 capacity_0_0: flow[0,0] <= 12.02882304908267
 capacity_0_1: flow[0,1] <= 83.9195024569003
 capacity_0_2: flow[0,2] <= 36.0906832144007
 capacity_0_3: flow[0,3] <= 84.53336509037291
 capacity_0_4: flow[0,4] <= 45.13837690125851
 capacity_1_0: flow[1,0] <= 42.21146752026493
 capacity_1_1: flow[1,1] <= 88.51982815885991
 capacity_1_2: flow[1,2] <= 24.20767185934136
 capacity_1_3: flow[1,3] <= 35.926209589317
 capacity_1_4: flow[1,4] <= 58.09814290539941
 capacity_2_0: flow[2,0] <= 31.72585604181564
 capacity_2_1: flow[2,1] <= 56.59837792711566
 capacity_2_2: flow[2,2] <= 65.01226212832503
 capacity_2_3: flow[2,3] <= 38.10153898544436
 capacity_2_4: flow[2,4] <= 65.67804243488861
 capacity_3_0: flow[3,0] <= 59.13474569303253
 capacity_3_1: flow[3,1] <= 90.26275388880596
 capacity_3_2: flow[3,2] <= 62.44952605953874
 capacity_3_3: flow[3,3] <= 94.32341972414568
 capacity_3_4: flow[3,4] <= 98.64405366536063
 capacity_4_0: flow[4,0] <= 68.79088008923844
 capacity_4_1: flow[4,1] <= 12.90472530144506
 capacity_4_2: flow[4,2] <= 47.92651275902464
 capacity_4_3: flow[4,3] <= 28.04601311764651
 capacity_4_4: flow[4,4] <= 89.92252281923764
 capacity_5_0: flow[5,0] <= 15.34527720910293
 capacity_5_1: flow[5,1] <= 28.38099769680098
 capacity_5_2: flow[5,2] <= 83.50861404872343
 capacity_5_3: flow[5,3] <= 39.66482529920103
 capacity_5_4: flow[5,4] <= 78.16102884486504
 capacity_6_0: flow[6,0] <= 92.10875860634681
 capacity_6_1: flow[6,1] <= 15.60956538621744
 capacity_6_2: flow[6,2] <= 54.41996027948014
 capacity_6_3: flow[6,3] <= 82.50958655267792
 capacity_6_4: flow[6,4] <= 60.74705788038036
 capacity_7_0: flow[7,0] <= 64.90015397428105
 capacity_7_1: flow[7,1] <= 85.15031105951726
 capacity_7_2: flow[7,2] <= 82.67387459563156
 capacity_7_3: flow[7,3] <= 41.12610152583601
 capacity_7_4: flow[7,4] <= 16.36867862561122
 capacity_8_0: flow[8,0] <= 47.46161575491194
 capacity_8_1: flow[8,1] <= 76.53604533611937
 capacity_8_2: flow[8,2] <= 93.64272279481153
 capacity_8_3: flow[8,3] <= 89.87667701861466
 capacity_8_4: flow[8,4] <= 53.08943364913807
 capacity_9_0: flow[9,0] <= 21.65181185562727
 capacity_9_1: flow[9,1] <= 75.09967978117382
 capacity_9_2: flow[9,2] <= 19.36550947430735
 capacity_9_3: flow[9,3] <= 54.69370481136727
 capacity_9_4: flow[9,4] <= 30.27205369271582
 capacity_10_0: flow[10,0] <= 41.5231914731592
 capacity_10_1: flow[10,1] <= 52.9833330758486
 capacity_10_2: flow[10,2] <= 80.33876543108384
 capacity_10_3: flow[10,3] <= 88.88048207336595
 capacity_10_4: flow[10,4] <= 30.49796232528904
 capacity_11_0: flow[11,0] <= 93.81218809621103
 capacity_11_1: flow[11,1] <= 12.37184375245266
 capacity_11_2: flow[11,2] <= 80.36403047310326
 capacity_11_3: flow[11,3] <= 27.65568545517867
 capacity_11_4: flow[11,4] <= 64.7325005935617
 capacity_12_0: flow[12,0] <= 44.1449550641679
 capacity_12_1: flow[12,1] <= 71.52355601201296
 capacity_12_2: flow[12,2] <= 11.62853777203438
 capacity_12_3: flow[12,3] <= 53.39560050288318
 capacity_12_4: flow[12,4] <= 44.84123109960061
 capacity_13_0: flow[13,0] <= 43.95050296626722
 capacity_13_1: flow[13,1] <= 21.27136542405693
 capacity_13_2: flow[13,2] <= 73.12040089380011
 capacity_13_3: flow[13,3] <= 59.45904316305622
 capacity_13_4: flow[13,4] <= 20.40248795908508
 capacity_14_0: flow[14,0] <= 20.61933011370305
 capacity_14_1: flow[14,1] <= 65.40878816267929
 capacity_14_2: flow[14,2] <= 91.31961616198555
 capacity_14_3: flow[14,3] <= 41.66101863554199
 capacity_14_4: flow[14,4] <= 40.88130734329845
 flow_conservation_0_0: flow[8,0] = -6.11219374275823
 flow_conservation_0_1: flow[8,1] = -6.11219374275823
 flow_conservation_0_2: flow[8,2] = -6.11219374275823
 flow_conservation_0_3: flow[8,3] = -6.11219374275823
 flow_conservation_0_4: flow[8,4] = -6.11219374275823
 flow_conservation_1_0: flow[6,0] - flow[7,0] - flow[10,0]
   = 12.54707006820903
 flow_conservation_1_1: flow[6,1] - flow[7,1] - flow[10,1]
   = 12.54707006820903
 flow_conservation_1_2: flow[6,2] - flow[7,2] - flow[10,2]
   = 12.54707006820903
 flow_conservation_1_3: flow[6,3] - flow[7,3] - flow[10,3]
   = 12.54707006820903
 flow_conservation_1_4: flow[6,4] - flow[7,4] - flow[10,4]
   = 12.54707006820903
 flow_conservation_2_0: - flow[0,0] - flow[5,0] - flow[8,0] + flow[14,0]
   = 37.39769017015965
 flow_conservation_2_1: - flow[0,1] - flow[5,1] - flow[8,1] + flow[14,1]
   = 37.39769017015965
 flow_conservation_2_2: - flow[0,2] - flow[5,2] - flow[8,2] + flow[14,2]
   = 37.39769017015965
 flow_conservation_2_3: - flow[0,3] - flow[5,3] - flow[8,3] + flow[14,3]
   = 37.39769017015965
 flow_conservation_2_4: - flow[0,4] - flow[5,4] - flow[8,4] + flow[14,4]
   = 37.39769017015965
 flow_conservation_3_0: flow[4,0] - flow[6,0] + flow[7,0] - flow[12,0]
   = 6.91524228315339
 flow_conservation_3_1: flow[4,1] - flow[6,1] + flow[7,1] - flow[12,1]
   = 6.91524228315339
 flow_conservation_3_2: flow[4,2] - flow[6,2] + flow[7,2] - flow[12,2]
   = 6.91524228315339
 flow_conservation_3_3: flow[4,3] - flow[6,3] + flow[7,3] - flow[12,3]
   = 6.91524228315339
 flow_conservation_3_4: flow[4,4] - flow[6,4] + flow[7,4] - flow[12,4]
   = 6.91524228315339
 flow_conservation_4_0: - flow[3,0] - flow[4,0] = -37.28076161266316
 flow_conservation_4_1: - flow[3,1] - flow[4,1] = -37.28076161266316
 flow_conservation_4_2: - flow[3,2] - flow[4,2] = -37.28076161266316
 flow_conservation_4_3: - flow[3,3] - flow[4,3] = -37.28076161266316
 flow_conservation_4_4: - flow[3,4] - flow[4,4] = -37.28076161266316
 flow_conservation_5_0: flow[0,0] + flow[10,0] + flow[13,0]
   = 1.724686695804436
 flow_conservation_5_1: flow[0,1] + flow[10,1] + flow[13,1]
   = 1.724686695804436
 flow_conservation_5_2: flow[0,2] + flow[10,2] + flow[13,2]
   = 1.724686695804436
 flow_conservation_5_3: flow[0,3] + flow[10,3] + flow[13,3]
   = 1.724686695804436
 flow_conservation_5_4: flow[0,4] + flow[10,4] + flow[13,4]
   = 1.724686695804436
 flow_conservation_6_0: flow[1,0] + flow[5,0] - flow[9,0]
   = -39.90869960343279
 flow_conservation_6_1: flow[1,1] + flow[5,1] - flow[9,1]
   = -39.90869960343279
 flow_conservation_6_2: flow[1,2] + flow[5,2] - flow[9,2]
   = -39.90869960343279
 flow_conservation_6_3: flow[1,3] + flow[5,3] - flow[9,3]
   = -39.90869960343279
 flow_conservation_6_4: flow[1,4] + flow[5,4] - flow[9,4]
   = -39.90869960343279
 flow_conservation_7_0: - flow[1,0] + flow[3,0] + flow[11,0]
   = -0.1287756632465857
 flow_conservation_7_1: - flow[1,1] + flow[3,1] + flow[11,1]
   = -0.1287756632465857
 flow_conservation_7_2: - flow[1,2] + flow[3,2] + flow[11,2]
   = -0.1287756632465857
 flow_conservation_7_3: - flow[1,3] + flow[3,3] + flow[11,3]
   = -0.1287756632465857
 flow_conservation_7_4: - flow[1,4] + flow[3,4] + flow[11,4]
   = -0.1287756632465857
 flow_conservation_8_0: flow[2,0] - flow[11,0] - flow[13,0] - flow[14,0]
   = -44.85209911950709
 flow_conservation_8_1: flow[2,1] - flow[11,1] - flow[13,1] - flow[14,1]
   = -44.85209911950709
 flow_conservation_8_2: flow[2,2] - flow[11,2] - flow[13,2] - flow[14,2]
   = -44.85209911950709
 flow_conservation_8_3: flow[2,3] - flow[11,3] - flow[13,3] - flow[14,3]
   = -44.85209911950709
 flow_conservation_8_4: flow[2,4] - flow[11,4] - flow[13,4] - flow[14,4]
   = -44.85209911950709
 flow_conservation_9_0: - flow[2,0] + flow[9,0] + flow[12,0]
   = 4.053802289753996
 flow_conservation_9_1: - flow[2,1] + flow[9,1] + flow[12,1]
   = 4.053802289753996
 flow_conservation_9_2: - flow[2,2] + flow[9,2] + flow[12,2]
   = 4.053802289753996
 flow_conservation_9_3: - flow[2,3] + flow[9,3] + flow[12,3]
   = 4.053802289753996
 flow_conservation_9_4: - flow[2,4] + flow[9,4] + flow[12,4]
   = 4.053802289753996
Bounds
End
